32	0

0	2	2	3
4	2	4	5
2	2	4	5
6	1	6
4	1	6
6	2	7	8
6	2	9	10
6	2	9	10
1	1	11
1	1	11
10	1	12
1	1	13
10	1	14
3	1	15
10	1	16
9	1	17
7	2	18	19
5	1	20
5	1	20
10	1	21
8	1	22
3	1	23
10	1	24
9	2	25	26
5	1	27
3	1	27
3	1	28
1	1	29
1	1	30
6	1	31
7	1	32
0	0
